62383
[0, 1, 27, 28, 29, 33, 32, 31, 30, 48, 49, 50, 51, 52, 53, 54, 55, 56, 57, 78, 79, 80, 81, 82, 83, 84, 85, 104, 103, 105, 106, 107, 108, 109, 110, 111, 112, 113, 143, 142, 141, 140, 139, 138, 137, 136, 135, 134, 133, 132, 131, 130, 114, 129, 128, 127, 126, 125, 124, 123, 122, 121, 120, 119, 118, 117, 116, 115, 91, 90, 92, 93, 94, 95, 96, 97, 98, 99, 100, 101, 102, 87, 86, 89, 88, 77, 76, 75, 74, 73, 72, 71, 70, 44, 43, 42, 69, 68, 67, 66, 65, 64, 63, 62, 61, 60, 59, 58, 47, 46, 45, 20, 17, 16, 40, 41, 15, 14, 13, 12, 11, 10, 9, 8, 6, 7, 18, 19, 39, 38, 37, 36, 22, 21, 23, 24, 35, 34, 25, 26, 5, 4, 3, 2]
